unsat
(define-fun f ((x (_ BitVec 64))) (_ BitVec 64) (let ((_let_1 (bvand #b0000000000000000000000000000000000000000000000000000000000000001 (shesh x)))) (let ((_let_2 (bvnot x))) (im (bvand #b0000000000000000000000000000000000000000000000000000000000000001 _let_2) (im _let_1 (shesh _let_2) #b0000000000000000000000000000000000000000000000000000000000000000) (im _let_1 (bvxor #b0000000000000000000000000000000000000000000000000000000000000001 x) #b0000000000000000000000000000000000000000000000000000000000000000)))))
0.61user 0.00system 0:00.61elapsed 99%CPU (0avgtext+0avgdata 35608maxresident)k
16inputs+8outputs (0major+3556minor)pagefaults 0swaps
